(set-logic SLHV)
(declare-hvar emp IntHeap)
(declare-locvar nil IntLoc)
(declare-datatype pt_record_0 ((Pt_R_0 (loc IntLoc))))
(declare-datatype pt_record_1 ((Pt_R_1 (data Int))))
(declare-const invalidFree_3 Bool)
(declare-const loc_3 Int)
(declare-const invalidFree_2 Bool)
(declare-hvar H_2 IntHeap)
(declare-hvar H_3 IntHeap)
(declare-hvar AH_2 IntHeap)
(declare-hvar AH_3 IntHeap)
(declare-const $i3_main0_2 Int)
(declare-const $i3_main0_3 Int)
(declare-const $i3_f0_2 Int)
(declare-const $i3_f0_3 Int)
(declare-const $i2_main0_2 Int)
(declare-const $i2_main0_3 Int)
(declare-const $i0_h0_2 Int)
(declare-const $i0_h0_3 Int)
(declare-locvar $p2_f0_2 IntLoc)
(declare-locvar $p2_f0_3 IntLoc)
(declare-locvar $p1_main0_2 IntLoc)
(declare-locvar $p1_main0_3 IntLoc)
(declare-locvar $p1_f0_2 IntLoc)
(declare-locvar $p1_f0_3 IntLoc)
(declare-locvar $p0_main0_2 IntLoc)
(declare-locvar $p0_main0_3 IntLoc)
(declare-locvar $p0_f0_2 IntLoc)
(declare-locvar $p0_f0_3 IntLoc)
(declare-locvar $M.0_2 IntLoc)
(declare-locvar $M.0_3 IntLoc)
(declare-const $r_main01_3 Int)
(declare-const $r_main0_3 Int)
(declare-const loc_2 Int)
(declare-const $r_main0_2 Int)
(declare-const invalidFree_1 Bool)
(declare-const $r_main0_1 Int)
(declare-const $i3_main0_1 Int)
(declare-const $i3_f0_1 Int)
(declare-const $i2_main0_1 Int)
(declare-const $i0_h0_1 Int)
(declare-locvar $p1_main0_1 IntLoc)
(declare-locvar $p0_main0_1 IntLoc)
(declare-locvar $M.0_1 IntLoc)
(declare-hvar H3_2 IntHeap)
(declare-hvar AH2_2 IntHeap)
(declare-locvar $p2_f01_2 IntLoc)
(declare-locvar $p1_f01_2 IntLoc)
(declare-locvar $p0_f01_2 IntLoc)
(declare-hvar h1_2 IntHeap)
(declare-locvar l3_2 IntLoc)
(declare-hvar H2_2 IntHeap)
(declare-locvar l2_2 IntLoc)
(declare-hvar AH_1 IntHeap)
(declare-const d2_2 Int)
(declare-hvar H_1 IntHeap)
(declare-const loc_1 Int)
(declare-locvar $p2_f0_1 IntLoc)
(declare-locvar $p1_f0_1 IntLoc)
(declare-locvar $p0_f0_1 IntLoc)
(declare-const invalidFree_0 Bool)
(declare-const $r_main0_0 Int)
(declare-const $i3_main0_0 Int)
(declare-const $i3_f0_0 Int)
(declare-const $i2_main0_0 Int)
(declare-const $i0_h0_0 Int)
(declare-locvar $p2_f0_0 IntLoc)
(declare-locvar $p1_f0_0 IntLoc)
(declare-locvar $p0_f0_0 IntLoc)
(declare-hvar H1_1 IntHeap)
(declare-hvar AH1_1 IntHeap)
(declare-locvar $p1_main01_1 IntLoc)
(declare-locvar $p0_main01_1 IntLoc)
(declare-locvar $M.02_1 IntLoc)
(declare-locvar l1_1 IntLoc)
(declare-hvar AH_0 IntHeap)
(declare-const d1_1 Int)
(declare-hvar H_0 IntHeap)
(declare-locvar $M.01_1 IntLoc)
(declare-const loc_0 Int)
(assert
 (let (($x435 (= loc_3 6)))
 (let (($x492 (= invalidFree_3 invalidFree_2)))
 (let (($x399 (= H_3 H_2)))
 (let (($x400 (and (and true (= AH_3 AH_2)) $x399)))
 (let (($x389 (= $i3_main0_3 $i3_main0_2)))
 (let (($x386 (= $i3_f0_3 $i3_f0_2)))
 (let (($x383 (= $i2_main0_3 $i2_main0_2)))
 (let (($x390 (and (and (and (and true (= $i0_h0_3 $i0_h0_2)) $x383) $x386) $x389)))
 (let (($x376 (= $p2_f0_3 $p2_f0_2)))
 (let (($x373 (= $p1_main0_3 $p1_main0_2)))
 (let (($x370 (= $p1_f0_3 $p1_f0_2)))
 (let (($x367 (= $p0_main0_3 $p0_main0_2)))
 (let (($x368 (and (and (and true (= $M.0_3 $M.0_2)) (= $p0_f0_3 $p0_f0_2)) $x367)))
 (let (($x377 (and (and (and $x368 $x370) $x373) $x376)))
 (let (($x427 (= $r_main0_3 $r_main01_3)))
 (let (($x428 (and $x427 true)))
 (let (($x425 (= $r_main01_3 0)))
 (let (($x505 (or $x425 invalidFree_2)))
 (let (($x511 (and (and (and (and (and (and $x505 $x428) $x377) $x390) $x400) $x492) $x435)))
 (let (($x353 (= loc_2 4)))
 (let (($x424 (and $x353 (not (= $i0_h0_2 1)))))
 (let (($x418 (= loc_3 5)))
 (let (($x392 (= $r_main0_3 $r_main0_2)))
 (let (($x393 (and $x390 $x392)))
 (let (($x499 (and (and (and (or false invalidFree_2) (and true true)) $x377) $x393)))
 (let (($x409 (= $i0_h0_2 1)))
 (let (($x410 (and $x353 $x409)))
 (let (($x406 (= loc_3 3)))
 (let (($x489 (and (and (and (or true invalidFree_2) (and true true)) $x377) $x393)))
 (let (($x280 (= loc_2 3)))
 (let (($x504 (and (=> $x280 (and (and (and $x489 $x400) $x492) $x406)) (=> $x410 (and (and (and $x499 $x400) $x492) $x418)))))
 (let (($x466 (= invalidFree_2 invalidFree_1)))
 (let (($x265 (= $r_main0_2 $r_main0_1)))
 (let (($x262 (= $i3_main0_2 $i3_main0_1)))
 (let (($x259 (= $i3_f0_2 $i3_f0_1)))
 (let (($x256 (= $i2_main0_2 $i2_main0_1)))
 (let (($x263 (and (and (and (and true (= $i0_h0_2 $i0_h0_1)) $x256) $x259) $x262)))
 (let (($x266 (and $x263 $x265)))
 (let (($x246 (= $p1_main0_2 $p1_main0_1)))
 (let (($x240 (= $p0_main0_2 $p0_main0_1)))
 (let (($x234 (= $M.0_2 $M.0_1)))
 (let (($x235 (and true $x234)))
 (let (($x349 (and (and $x235 $x240) $x246)))
 (let (($x343 (= H_2 H3_2)))
 (let (($x341 (= AH_2 AH2_2)))
 (let (($x339 (= $p2_f0_2 $p2_f01_2)))
 (let (($x342 (and (and (and (= $p0_f0_2 $p0_f01_2) (= $p1_f0_2 $p1_f01_2)) $x339) $x341)))
 (let (($x344 (and $x342 $x343)))
 (let (($x477 (and $x344 true)))
 (let (($x307 (and (= H2_2 (uplus h1_2 (pt $p2_f01_2 (Pt_R_0 l3_2)))) (= H3_2 (uplus h1_2 (pt $p2_f01_2 (Pt_R_0 $p0_f01_2)))))))
 (let (($x470 (or $x307 invalidFree_1)))
 (let (($x318 (= $p2_f01_2 $M.0_1)))
 (let (($x471 (or $x318 invalidFree_1)))
 (let (($x320 (= $p1_f01_2 $p0_f01_2)))
 (let (($x472 (or $x320 invalidFree_1)))
 (let (($x324 (= AH2_2 (uplus AH_1 (pt l2_2 (Pt_R_1 2))))))
 (let (($x325 (= $p0_f01_2 l2_2)))
 (let (($x329 (= H2_2 (uplus H_1 (pt l2_2 (Pt_R_1 d2_2))))))
 (let (($x331 (and (and $x329 $x325) $x324)))
 (let (($x479 (and (and (and (and (and (or $x331 invalidFree_1) $x472) $x471) $x470) $x477) $x349)))
 (let (($x224 (= loc_1 2)))
 (let (($x296 (and $x224 (not (= $i3_main0_1 1)))))
 (let (($x272 (= H_2 H_1)))
 (let (($x273 (and (and true (= AH_2 AH_1)) $x272)))
 (let (($x249 (= $p2_f0_2 $p2_f0_1)))
 (let (($x243 (= $p1_f0_2 $p1_f0_1)))
 (let (($x250 (and (and (and (and (and $x235 (= $p0_f0_2 $p0_f0_1)) $x240) $x243) $x246) $x249)))
 (let (($x463 (and (and (and (or false invalidFree_1) (and true true)) $x250) $x266)))
 (let (($x228 (= $i3_main0_1 1)))
 (let (($x229 (and $x224 $x228)))
 (let (($x484 (and (=> $x229 (and (and (and $x463 $x273) $x466) $x280)) (=> $x296 (and (and (and $x479 $x266) $x466) $x353)))))
 (let (($x455 (= invalidFree_1 invalidFree_0)))
 (let (($x217 (= $r_main0_1 $r_main0_0)))
 (let (($x213 (= $i3_main0_1 $i3_main0_0)))
 (let (($x209 (= $i3_f0_1 $i3_f0_0)))
 (let (($x205 (= $i2_main0_1 $i2_main0_0)))
 (let (($x214 (and (and (and (and true (= $i0_h0_1 $i0_h0_0)) $x205) $x209) $x213)))
 (let (($x218 (and $x214 $x217)))
 (let (($x196 (= $p2_f0_1 $p2_f0_0)))
 (let (($x197 (and (and (and true (= $p0_f0_1 $p0_f0_0)) (= $p1_f0_1 $p1_f0_0)) $x196)))
 (let (($x182 (= H_1 H1_1)))
 (let (($x179 (= AH_1 AH1_1)))
 (let (($x176 (= $p1_main0_1 $p1_main01_1)))
 (let (($x177 (and (and (= $M.0_1 $M.02_1) (= $p0_main0_1 $p0_main01_1)) $x176)))
 (let (($x184 (and (and (and $x177 $x179) $x182) true)))
 (let (($x150 (= $M.02_1 $p0_main01_1)))
 (let (($x444 (or $x150 invalidFree_0)))
 (let (($x152 (= $p1_main01_1 $p0_main01_1)))
 (let (($x445 (or $x152 invalidFree_0)))
 (let (($x156 (= AH1_1 (uplus AH_0 (pt l1_1 (Pt_R_1 1))))))
 (let (($x157 (= $p0_main01_1 l1_1)))
 (let (($x161 (= H1_1 (uplus H_0 (pt l1_1 (Pt_R_1 d1_1))))))
 (let (($x163 (and (and $x161 $x157) $x156)))
 (let (($x165 (= $M.01_1 nil)))
 (let (($x447 (or $x165 invalidFree_0)))
 (let (($x452 (and (and (and (and (and $x447 (or $x163 invalidFree_0)) $x445) $x444) $x184) $x197)))
 (let (($x136 (= loc_0 1)))
 (let (($x442 (not invalidFree_0)))
 (let (($x138 (and (and (= H_0 emp) (= AH_0 emp)) $x136)))
 (let (($x459 (and (and $x138 $x442) (=> $x136 (and (and (and $x452 $x218) $x455) $x224)))))
 (and (and (and $x459 $x484) (and $x504 (=> $x424 $x511))) invalidFree_3))))))))))))))))))))))))))))))))))))))))))))))))))))))))))))))))))))))))))))))))))))))))))))))))))))))
(check-sat)
